p cnf 7230 17
498 -1479 0
500 -1483 0
-498 -977 1477 0
-500 -985 1482 0
498 -1481 0
-498 -975 1478 0
-498 -1220 1480 0
-1482 1483 0
-1478 1479 0
985 -1483 0
-1480 1481 0
1220 -1481 0
975 -1479 0
1476 -1477 0
983 -1485 0
-1476 1477 0
500 -1485 0
